*SENSE:Minimize
NAME          MODEL
ROWS
 N  OBJ
 L  C0000000
 G  C0000001
 E  C0000002
 G  C0000003
COLUMNS
    X0000000  C0000003   1.000000000000e+00
    X0000002  C0000001   1.000000000000e+00
    X0000002  C0000000   1.000000000000e+00
    X0000002  C0000002  -1.000000000000e+00
    X0000002  OBJ        1.000000000000e+00
    X0000002  C0000001   1.000000000000e+00
    X0000002  C0000000   1.000000000000e+00
    X0000002  C0000002  -1.000000000000e+00
    X0000002  OBJ        4.000000000000e+00
    X0000003  C0000001   1.000000000000e+00
    X0000003  C0000002   1.000000000000e+00
    X0000003  OBJ        9.000000000000e+00
RHS
    RHS       C0000000   5.000000000000e+00
    RHS       C0000001   1.000000000000e+01
    RHS       C0000002   7.000000000000e+00
    RHS       C0000003   0.000000000000e+00
BOUNDS
 UP BND       X0000002   4.000000000000e+00
 LO BND       X0000002  -1.000000000000e+00
 UP BND       X0000002   1.000000000000e+00
ENDATA
